unknown
(model
; cardinality of BoundSet is 3
(declare-sort BoundSet 0)
; rep: @uc_BoundSet_0
; rep: @uc_BoundSet_1
; rep: @uc_BoundSet_2
; cardinality of UnboundSet is 1
(declare-sort UnboundSet 0)
(declare-fun groundTerm_4 () UnboundSet)
(define-fun IsSittingBy ((BOUND_VARIABLE_424 BoundSet) (BOUND_VARIABLE_425 BoundSet)) Bool true)
(define-fun IsNearby ((BOUND_VARIABLE_424 BoundSet) (BOUND_VARIABLE_425 BoundSet)) Bool true)
(define-fun IsNear ((BOUND_VARIABLE_424 BoundSet) (BOUND_VARIABLE_425 BoundSet)) Bool false)
)
sat
(model
; cardinality of BoundSet is 1
(declare-sort BoundSet 0)
; rep: @uc_BoundSet_0
; cardinality of UnboundSet is 1
(declare-sort UnboundSet 0)
(declare-fun groundTerm_7 () UnboundSet)
(define-fun IsSittingBy ((BOUND_VARIABLE_462 BoundSet) (BOUND_VARIABLE_463 BoundSet)) Bool true)
(define-fun IsNearby ((BOUND_VARIABLE_462 BoundSet) (BOUND_VARIABLE_463 BoundSet)) Bool true)
(define-fun IsNear ((BOUND_VARIABLE_462 BoundSet) (BOUND_VARIABLE_463 BoundSet)) Bool false)
)
